NAME: grubhub-05-4
TYPE: TSP
COMMENT: size=5 instance=4
DIMENSION: 12
EDGE_WEIGHT_TYPE: EXPLICIT
EDGE_WEIGHT_FORMAT : LOWER_DIAG_ROW
EDGE_WEIGHT_SECTION
0
0 0
1045 0 0
961 0 602 0
1056 0 391 862 0
1086 0 577 1002 291 0
596 0 583 417 796 760 0
847 0 1027 561 1349 1321 553 0
945 0 204 375 624 564 420 816 0
1207 0 728 470 1088 1022 761 444 534 0
956 0 793 327 1158 1087 456 339 599 304 0
401 0 778 727 948 912 332 789 700 1047 793 0
NODE_COORD_SECTION
+0 1000 49
-0 1000 49
+1 99 301
-1 392 601
+2 0 185
-2 8 75
+3 672 423
-3 670 986
+4 120 412
-4 288 853
+5 460 700
-5 743 294
PRECEDENCE_SECTION
+0 -0
+1 -1
+2 -2
+3 -3
+4 -4
+5 -5
EOF
